p tw 324 366
1 2
2 113
3 14
4 5
5 6
6 7
7 8
8 9
9 10
10 11
11 12
12 13
12 21
13 15
14 25
15 16
16 17
17 18
18 19
19 20
20 21
21 22
22 23
23 24
24 26
25 36
26 27
27 28
28 29
29 30
30 31
31 32
32 33
32 71
33 34
34 35
35 37
36 47
37 38
38 39
39 40
40 41
41 42
41 64
42 43
43 44
44 45
45 46
46 48
47 58
48 49
49 50
50 51
51 52
52 53
53 54
54 55
54 64
55 56
55 64
56 57
57 59
58 69
59 60
60 61
61 62
62 63
63 64
63 56
64 65
65 66
66 67
67 68
68 70
69 80
70 31
71 72
72 73
73 74
74 75
75 76
76 77
77 78
77 188
78 79
79 81
80 91
81 82
82 83
83 84
84 85
85 86
86 87
87 88
88 89
89 90
90 92
91 102
91 114
92 93
93 94
94 95
95 96
96 97
96 188
97 98
97 188
98 99
99 100
100 101
101 103
102 114
103 104
104 105
105 106
106 107
106 188
107 108
108 109
109 110
109 161
110 111
111 112
112 115
113 224
114 125
115 116
116 117
117 118
118 119
119 120
119 161
120 121
121 122
122 123
123 124
124 126
125 136
126 127
127 128
128 129
129 130
130 131
131 132
131 108
132 133
133 134
134 135
135 137
136 147
137 138
137 108
138 139
139 140
140 141
141 142
141 157
142 143
143 144
144 145
145 146
145 157
146 148
147 158
147 180
148 149
149 150
150 151
151 152
152 153
153 154
153 108
154 155
155 156
156 108
157 159
158 169
159 160
160 108
161 162
162 163
163 164
164 165
165 166
165 95
166 167
166 95
167 168
167 179
168 170
169 180
170 171
171 172
172 173
173 174
174 175
175 176
176 177
177 178
178 95
179 181
180 191
181 182
182 183
183 184
184 185
185 186
186 187
187 95
188 189
189 190
189 206
190 192
191 202
192 193
193 194
193 201
194 195
195 196
196 197
196 201
197 198
198 199
199 200
200 201
200 206
201 203
202 213
203 204
204 205
205 208
206 207
207 208
208 209
209 210
210 211
211 212
212 214
213 225
214 215
214 217
215 216
215 217
216 217
216 228
217 218
218 219
218 228
219 220
220 221
221 222
222 223
223 226
224 259
225 236
226 227
227 228
228 229
229 230
229 237
230 231
230 237
231 232
232 233
233 234
234 235
235 237
236 247
237 238
238 239
239 240
240 241
240 246
241 242
241 244
242 243
242 244
243 250
244 245
245 250
246 248
247 252
247 254
248 249
249 250
250 251
252 253
253 254
253 256
254 255
255 250
256 257
257 258
258 260
259 270
260 261
261 262
262 263
263 264
264 265
265 266
266 267
267 268
268 269
269 271
270 281
271 272
272 273
273 274
274 275
275 276
276 277
276 278
277 250
278 279
279 280
280 282
280 301
281 292
282 283
283 284
284 285
285 286
286 287
287 288
288 289
289 290
289 299
290 291
291 293
292 303
293 294
294 295
295 296
296 297
297 298
298 299
298 301
299 300
300 301
301 302
302 304
303 314
304 305
305 306
306 307
306 26
307 308
308 309
309 310
310 311
311 312
312 313
313 315
314 3
315 316
316 317
316 4
317 318
318 319
319 320
320 321
321 322
322 323
323 324
324 21
